\ENCODING=ISO-8859-1
\Problem name: ilog.cplex

Minimize
 obj1: 98399 x1 + 101509 x2 + 90703 x3 + 108714 x4 + 103847 x5 + 94629 x6
       + 108073 x7 + 100690 x8 + 99639 x9 + 96444 x10 + 97679 x11 + 96129 x12
       + 95396 x13 + 93563 x14 + 90061 x15 + 92904 x16 + 109144 x17
       + 109946 x18 + 103120 x19 + 92009 x20 + 100476 x21 + 107513 x22
       + 103587 x23 + 90076 x24 + 92523 x25 + 100418 x26 + 109531 x27
       + 104128 x28 + 102575 x29 + 109168 x30 + 109588 x31 + 106012 x32
       + 104316 x33 + 100932 x34 + 103086 x35 + 101936 x36 + 103434 x37
       + 103217 x38 + 99293 x39 + 101161 x40 + 102715 x41 + 99479 x42
       + 93734 x43 + 97124 x44 + 102815 x45 + 97316 x46 + 104858 x47
       + 94146 x48 + 90479 x49 + 102552 x50 + 105281 x51 + 93340 x52
       + 107306 x53 + 95817 x54 + 98434 x55 + 102492 x56 + 109001 x57
       + 92171 x58 + 93625 x59 + 96377 x60 + 106369 x61 + 97466 x62 + 91408 x63
       + 96367 x64 + 101182 x65 + 108892 x66 + 94316 x67 + 102313 x68
       + 94186 x69 + 94067 x70 + 98501 x71 + 101991 x72 + 96992 x73
       + 103255 x74 + 95386 x75 + 95726 x76 + 93854 x77 + 101221 x78
       + 94627 x79 + 91818 x80 + 96932 x81 + 99441 x82 + 101076 x83
       + 101829 x84 + 98558 x85 + 101749 x86 + 95420 x87 + 92940 x88
       + 103414 x89 + 108561 x90 + 102473 x91 + 103369 x92 + 100857 x93
       + 97961 x94 + 101309 x95 + 105332 x96 + 105650 x97 + 90708 x98
       + 102200 x99 + 104092 x100 + 93945 x101 + 90613 x102 + 106752 x103
       + 91350 x104 + 90615 x105 + 91759 x106 + 99694 x107 + 106575 x108
       + 103898 x109 + 99673 x110 + 93443 x111 + 100816 x112 + 93787 x113
       + 104847 x114 + 99864 x115 + 104118 x116 + 101739 x117 + 93865 x118
       + 97581 x119 + 109894 x120 + 107399 x121 + 109146 x122 + 100934 x123
       + 106262 x124 + 96955 x125 + 97679 x126 + 98122 x127 + 96606 x128
       + 91607 x129 + 96627 x130 + 95585 x131 + 103090 x132 + 103647 x133
       + 106962 x134 + 103569 x135 + 102386 x136 + 94740 x137 + 98005 x138
       + 107060 x139 + 108065 x140 + 94354 x141 + 102746 x142 + 108456 x143
       + 101568 x144 + 102787 x145 + 90023 x146 + 93290 x147 + 101852 x148
       + 92269 x149 + 109270 x150 + 109463 x151 + 95532 x152 + 102483 x153
       + 90905 x154 + 93588 x155 + 109480 x156 + 95262 x157 + 103398 x158
       + 96802 x159 + 108686 x160 + 107349 x161 + 96710 x162 + 96829 x163
       + 103575 x164 + 99766 x165 + 100985 x166 + 93059 x167 + 93049 x168
       + 107719 x169 + 99289 x170 + 107077 x171 + 92187 x172 + 105871 x173
       + 93637 x174 + 92341 x175 + 96843 x176 + 100452 x177 + 94688 x178
       + 93601 x179 + 101299 x180 + 109690 x181 + 99040 x182 + 95817 x183
       + 97247 x184 + 107093 x185 + 91195 x186 + 98370 x187 + 91518 x188
       + 101966 x189 + 109809 x190 + 108219 x191 + 90105 x192 + 98049 x193
       + 90756 x194 + 90508 x195 + 97655 x196 + 100912 x197 + 104915 x198
       + 92761 x199 + 90439 x200 + 91960 x201 + 92526 x202 + 95418 x203
       + 100892 x204 + 91076 x205 + 107850 x206 + 104078 x207 + 99817 x208
       + 97937 x209 + 107937 x210 + 91982 x211 + 92040 x212 + 91650 x213
       + 92141 x214 + 98605 x215 + 94407 x216 + 98483 x217 + 97472 x218
       + 98234 x219 + 93823 x220 + 108301 x221 + 98965 x222 + 91006 x223
       + 107391 x224 + 91719 x225 + 93939 x226 + 98127 x227 + 106764 x228
       + 102056 x229 + 104373 x230 + 102855 x231 + 104436 x232 + 98828 x233
       + 92566 x234 + 109321 x235 + 90990 x236 + 102833 x237 + 91824 x238
       + 92368 x239 + 99198 x240 + 93410 x241 + 100183 x242 + 90738 x243
       + 99043 x244 + 100789 x245 + 101614 x246 + 108457 x247 + 94352 x248
       + 94724 x249 + 108838 x250 + 106772 x251 + 102012 x252 + 90180 x253
       + 91738 x254 + 94026 x255 + 98102 x256 + 95699 x257 + 91622 x258
       + 94516 x259 + 95944 x260 + 107480 x261 + 107357 x262 + 107683 x263
       + 106998 x264 + 107187 x265 + 107325 x266 + 108312 x267 + 93333 x268
       + 97046 x269 + 105073 x270 + 101866 x271 + 92999 x272 + 93322 x273
       + 96098 x274 + 91910 x275 + 106984 x276 + 102383 x277 + 93362 x278
       + 105016 x279 + 94452 x280 + 102360 x281 + 99964 x282 + 92651 x283
       + 91540 x284 + 107783 x285 + 98787 x286 + 109232 x287 + 108254 x288
       + 104604 x289 + 101013 x290 + 90886 x291 + 107864 x292 + 108656 x293
       + 98069 x294 + 90385 x295 + 93665 x296 + 101877 x297 + 104860 x298
       + 100338 x299 + 99121 x300 + 99109 x301 + 97994 x302 + 101947 x303
       + 100097 x304 + 92374 x305 + 97507 x306 + 94852 x307 + 104385 x308
       + 108275 x309 + 104676 x310 + 104272 x311 + 103973 x312 + 104523 x313
       + 100629 x314 + 103659 x315 + 102388 x316 + 106854 x317 + 102381 x318
       + 100107 x319 + 97882 x320 + 96426 x321 + 92275 x322 + 105273 x323
       + 96353 x324 + 96247 x325 + 100478 x326 + 94301 x327 + 100996 x328
       + 104020 x329 + 109368 x330 + 98460 x331 + 93112 x332 + 105559 x333
       + 106241 x334 + 106734 x335 + 91341 x336 + 100273 x337 + 103853 x338
       + 101787 x339 + 95031 x340 + 98215 x341 + 97101 x342 + 106512 x343
       + 101552 x344 + 106796 x345 + 108567 x346 + 108837 x347 + 97051 x348
       + 94523 x349 + 95614 x350 + 104461 x351 + 95495 x352 + 98944 x353
       + 107423 x354 + 109898 x355 + 101805 x356 + 96521 x357 + 91599 x358
       + 91524 x359 + 101441 x360 + 91040 x361 + 106416 x362 + 100900 x363
       + 95621 x364 + 102519 x365 + 90875 x366 + 90538 x367 + 99778 x368
       + 96517 x369 + 94967 x370 + 95223 x371 + 94549 x372 + 90133 x373
       + 96364 x374 + 104165 x375 + 95083 x376 + 98622 x377 + 101126 x378
       + 102497 x379 + 107516 x380 + 91052 x381 + 94748 x382 + 102512 x383
       + 97323 x384 + 105863 x385 + 109262 x386 + 102223 x387 + 92875 x388
       + 103877 x389 + 96620 x390 + 95470 x391 + 97720 x392 + 93482 x393
       + 95313 x394 + 105254 x395 + 104633 x396 + 105588 x397 + 104528 x398
       + 95157 x399 + 104681 x400 + 104363 x401 + 98173 x402 + 92465 x403
       + 105322 x404 + 93875 x405 + 99668 x406 + 91010 x407 + 93010 x408
       + 100457 x409 + 97662 x410 + 91760 x411 + 97811 x412 + 95948 x413
       + 92707 x414 + 104831 x415 + 100212 x416 + 97913 x417 + 105386 x418
       + 97882 x419 + 103626 x420 + 99978 x421 + 104128 x422 + 99842 x423
       + 104458 x424 + 100368 x425 + 106821 x426 + 91751 x427 + 105831 x428
       + 107925 x429 + 99912 x430 + 102062 x431 + 102757 x432 + 95800 x433
       + 96847 x434 + 92862 x435 + 107014 x436 + 99674 x437 + 94982 x438
       + 93164 x439 + 106591 x440 + 101180 x441 + 107391 x442 + 103747 x443
       + 105098 x444 + 106344 x445 + 109970 x446 + 100098 x447 + 107828 x448
       + 91431 x449 + 91709 x450 + 106490 x451 + 93966 x452 + 97527 x453
       + 103166 x454 + 100949 x455 + 91967 x456 + 104705 x457 + 91041 x458
       + 108257 x459 + 108261 x460 + 106846 x461 + 105191 x462 + 106097 x463
       + 108220 x464 + 98940 x465 + 108510 x466 + 108077 x467 + 92708 x468
       + 100151 x469 + 109803 x470 + 96591 x471 + 93565 x472 + 107970 x473
       + 95133 x474 + 98372 x475 + 107007 x476 + 91443 x477 + 94039 x478
       + 106032 x479 + 95214 x480 + 93243 x481 + 96607 x482 + 105899 x483
       + 97329 x484 + 100958 x485 + 104506 x486 + 90866 x487 + 94971 x488
       + 97776 x489 + 100019 x490 + 102776 x491 + 90621 x492 + 91834 x493
       + 104640 x494 + 94207 x495 + 104691 x496 + 104548 x497 + 94118 x498
       + 108822 x499 + 103722 x500 + 96570 x501 + 105239 x502 + 93215 x503
       + 109182 x504 + 101784 x505 + 97017 x506 + 104481 x507 + 91399 x508
       + 92267 x509 + 96487 x510 + 91651 x511 + 104485 x512 + 109014 x513
       + 98230 x514 + 106358 x515 + 94820 x516 + 100760 x517 + 106328 x518
       + 100943 x519 + 103048 x520 + 96383 x521 + 107588 x522 + 100652 x523
       + 97498 x524 + 95116 x525 + 105703 x526 + 90656 x527 + 105600 x528
       + 93212 x529 + 107438 x530 + 98350 x531 + 109051 x532 + 95732 x533
       + 93967 x534 + 96700 x535 + 98393 x536 + 107735 x537 + 93182 x538
       + 105375 x539 + 103128 x540 + 104625 x541 + 104993 x542 + 92255 x543
       + 105911 x544 + 100797 x545 + 98276 x546 + 96128 x547 + 97188 x548
       + 103895 x549 + 94824 x550 + 96601 x551 + 102082 x552 + 95760 x553
       + 100799 x554 + 108788 x555 + 106429 x556 + 98489 x557 + 106904 x558
       + 108741 x559 + 98218 x560 + 102684 x561 + 91339 x562 + 91264 x563
       + 103415 x564 + 90357 x565 + 94794 x566 + 106500 x567 + 102882 x568
       + 95014 x569 + 95715 x570 + 103322 x571 + 98889 x572 + 97583 x573
       + 95946 x574 + 96478 x575 + 106882 x576 + 103568 x577 + 104413 x578
       + 103968 x579 + 101021 x580 + 104189 x581 + 99617 x582 + 91340 x583
       + 100466 x584 + 92251 x585 + 100502 x586 + 90368 x587 + 107449 x588
       + 102096 x589 + 99652 x590 + 91005 x591 + 97895 x592 + 92229 x593
       + 92769 x594 + 97575 x595 + 100686 x596 + 109082 x597 + 94081 x598
       + 92805 x599 + 269555 x600 + 428581 x601 + 419047 x602 + 404359 x603
       + 366727 x604 + 425020 x605 + 410141 x606 + 414941 x607 + 380957 x608
       + 365105 x609 + 409313 x610 + 362667 x611 + 404886 x612 + 413287 x613
       + 410092 x614 + 412808 x615 + 373134 x616 + 408311 x617 + 382508 x618
       + 424354 x619 + 382264 x620 + 429623 x621 + 409448 x622 + 397410 x623
       + 416224 x624 + 428976 x625 + 367336 x626 + 384763 x627 + 380854 x628
       + 430670 x629 + 422180 x630 + 405458 x631 + 397562 x632 + 364557 x633
       + 367077 x634 + 412688 x635 + 385149 x636 + 404130 x637 + 369859 x638
       + 410234 x639 + 385038 x640 + 417741 x641 + 429634 x642 + 421151 x643
       + 379027 x644 + 404188 x645 + 438561 x646 + 389367 x647 + 430016 x648
       + 414597 x649 + 410274 x650 + 439279 x651 + 364939 x652 + 380764 x653
       + 368936 x654 + 390424 x655 + 435534 x656 + 435784 x657 + 393013 x658
       + 423721 x659 + 265312 x660
Subject To
 c1:   - x10 + x12 - x15 - x16 - x20 + x22 + x25 + x29 + x31 - x54  = 0
 c2:   - x70 + x72 - x75 - x76 - x80 + x82 + x85 + x89 + x91 - x114  = 0
 c3:   - x130 + x132 - x135 - x136 - x140 + x142 + x145 + x149 + x151 - x174
        = 0
 c4:   - x190 + x192 - x195 - x196 - x200 + x202 + x205 + x209 + x211 - x234
        = 0
 c5:   - x250 + x252 - x255 - x256 - x260 + x262 + x265 + x269 + x271 - x294
        = 0
 c6:   - x310 + x312 - x315 - x316 - x320 + x322 + x325 + x329 + x331 - x354
        = 0
 c7:   - x370 + x372 - x375 - x376 - x380 + x382 + x385 + x389 + x391 - x414
        = -1
 c8:   - x430 + x432 - x435 - x436 - x440 + x442 + x445 + x449 + x451 - x474
        = 0
 c9:   - x490 + x492 - x495 - x496 - x500 + x502 + x505 + x509 + x511 - x534
        = -1
 c10:  - x550 + x552 - x555 - x556 - x560 + x562 + x565 + x569 + x571 - x594
        = 0
 c11:  x10 - x11 - x19 + x32 + x34 - x35 + x40 + x48  = 0
 c12:  x70 - x71 - x79 + x92 + x94 - x95 + x100 + x108  = 0
 c13:  x130 - x131 - x139 + x152 + x154 - x155 + x160 + x168  = 0
 c14:  x190 - x191 - x199 + x212 + x214 - x215 + x220 + x228  = 0
 c15:  x250 - x251 - x259 + x272 + x274 - x275 + x280 + x288  = 0
 c16:  x310 - x311 - x319 + x332 + x334 - x335 + x340 + x348  = 0
 c17:  x370 - x371 - x379 + x392 + x394 - x395 + x400 + x408  = 0
 c18:  x430 - x431 - x439 + x452 + x454 - x455 + x460 + x468  = 0
 c19:  x490 - x491 - x499 + x512 + x514 - x515 + x520 + x528  = 0
 c20:  x550 - x551 - x559 + x572 + x574 - x575 + x580 + x588  = 1
 c21:  x8 + x13 - x22 + x24 - x26 + x36 - x46 - x48 - x52 + x56 + x57  = 0
 c22:  x68 + x73 - x82 + x84 - x86 + x96 - x106 - x108 - x112 + x116 + x117
        = 0
 c23:  x128 + x133 - x142 + x144 - x146 + x156 - x166 - x168 - x172 + x176
       + x177  = 0
 c24:  x188 + x193 - x202 + x204 - x206 + x216 - x226 - x228 - x232 + x236
       + x237  = 0
 c25:  x248 + x253 - x262 + x264 - x266 + x276 - x286 - x288 - x292 + x296
       + x297  = 0
 c26:  x308 + x313 - x322 + x324 - x326 + x336 - x346 - x348 - x352 + x356
       + x357  = 0
 c27:  x368 + x373 - x382 + x384 - x386 + x396 - x406 - x408 - x412 + x416
       + x417  = 0
 c28:  x428 + x433 - x442 + x444 - x446 + x456 - x466 - x468 - x472 + x476
       + x477  = -1
 c29:  x488 + x493 - x502 + x504 - x506 + x516 - x526 - x528 - x532 + x536
       + x537  = 0
 c30:  x548 + x553 - x562 + x564 - x566 + x576 - x586 - x588 - x592 + x596
       + x597  = 0
 c31:  - x5 - x6 + x7 + x11 - x17 + x18 + x28 - x29 + x44 + x45 + x60  = -1
 c32:  - x65 - x66 + x67 + x71 - x77 + x78 + x88 - x89 + x104 + x105 + x120
        = 0
 c33:  - x125 - x126 + x127 + x131 - x137 + x138 + x148 - x149 + x164 + x165
       + x180  = 0
 c34:  - x185 - x186 + x187 + x191 - x197 + x198 + x208 - x209 + x224 + x225
       + x240  = 0
 c35:  - x245 - x246 + x247 + x251 - x257 + x258 + x268 - x269 + x284 + x285
       + x300  = 0
 c36:  - x305 - x306 + x307 + x311 - x317 + x318 + x328 - x329 + x344 + x345
       + x360  = 0
 c37:  - x365 - x366 + x367 + x371 - x377 + x378 + x388 - x389 + x404 + x405
       + x420  = 0
 c38:  - x425 - x426 + x427 + x431 - x437 + x438 + x448 - x449 + x464 + x465
       + x480  = 0
 c39:  - x485 - x486 + x487 + x491 - x497 + x498 + x508 - x509 + x524 + x525
       + x540  = 0
 c40:  - x545 - x546 + x547 + x551 - x557 + x558 + x568 - x569 + x584 + x585
       + x600  = 0
 c41:  - x2 - x8 + x16 - x33 - x34 + x39 - x45 - x53  = 0
 c42:  - x62 - x68 + x76 - x93 - x94 + x99 - x105 - x113  = 0
 c43:  - x122 - x128 + x136 - x153 - x154 + x159 - x165 - x173  = 0
 c44:  - x182 - x188 + x196 - x213 - x214 + x219 - x225 - x233  = 0
 c45:  - x242 - x248 + x256 - x273 - x274 + x279 - x285 - x293  = 0
 c46:  - x302 - x308 + x316 - x333 - x334 + x339 - x345 - x353  = 0
 c47:  - x362 - x368 + x376 - x393 - x394 + x399 - x405 - x413  = 0
 c48:  - x422 - x428 + x436 - x453 - x454 + x459 - x465 - x473  = 0
 c49:  - x482 - x488 + x496 - x513 - x514 + x519 - x525 - x533  = 0
 c50:  - x542 - x548 + x556 - x573 - x574 + x579 - x585 - x593  = 0
 c51:  x6 - x12 + x14 - x21 - x24 - x38 - x47 - x50 + x51 - x55  = 0
 c52:  x66 - x72 + x74 - x81 - x84 - x98 - x107 - x110 + x111 - x115  = 0
 c53:  x126 - x132 + x134 - x141 - x144 - x158 - x167 - x170 + x171 - x175
        = -1
 c54:  x186 - x192 + x194 - x201 - x204 - x218 - x227 - x230 + x231 - x235  = 0
 c55:  x246 - x252 + x254 - x261 - x264 - x278 - x287 - x290 + x291 - x295  = 0
 c56:  x306 - x312 + x314 - x321 - x324 - x338 - x347 - x350 + x351 - x355  = 0
 c57:  x366 - x372 + x374 - x381 - x384 - x398 - x407 - x410 + x411 - x415  = 1
 c58:  x426 - x432 + x434 - x441 - x444 - x458 - x467 - x470 + x471 - x475  = 0
 c59:  x486 - x492 + x494 - x501 - x504 - x518 - x527 - x530 + x531 - x535  = 0
 c60:  x546 - x552 + x554 - x561 - x564 - x578 - x587 - x590 + x591 - x595  = 0
 c61:  x2 + x4 - x9 - x14 + x17 - x57 + x58  = 0
 c62:  x62 + x64 - x69 - x74 + x77 - x117 + x118  = 0
 c63:  x122 + x124 - x129 - x134 + x137 - x177 + x178  = 0
 c64:  x182 + x184 - x189 - x194 + x197 - x237 + x238  = 0
 c65:  x242 + x244 - x249 - x254 + x257 - x297 + x298  = 0
 c66:  x302 + x304 - x309 - x314 + x317 - x357 + x358  = -1
 c67:  x362 + x364 - x369 - x374 + x377 - x417 + x418  = 0
 c68:  x422 + x424 - x429 - x434 + x437 - x477 + x478  = 0
 c69:  x482 + x484 - x489 - x494 + x497 - x537 + x538  = 0
 c70:  x542 + x544 - x549 - x554 + x557 - x597 + x598  = 0
 c71:  x5 + x15 - x37 - x40 + x59  = 0
 c72:  x65 + x75 - x97 - x100 + x119  = -1
 c73:  x125 + x135 - x157 - x160 + x179  = 0
 c74:  x185 + x195 - x217 - x220 + x239  = 0
 c75:  x245 + x255 - x277 - x280 + x299  = 0
 c76:  x305 + x315 - x337 - x340 + x359  = 0
 c77:  x365 + x375 - x397 - x400 + x419  = 0
 c78:  x425 + x435 - x457 - x460 + x479  = 0
 c79:  x485 + x495 - x517 - x520 + x539  = 0
 c80:  x545 + x555 - x577 - x580 + x599  = 0
 c81:  - x27 - x30 - x44 + x47 - x49 + x53  = 0
 c82:  - x87 - x90 - x104 + x107 - x109 + x113  = 0
 c83:  - x147 - x150 - x164 + x167 - x169 + x173  = 0
 c84:  - x207 - x210 - x224 + x227 - x229 + x233  = 0
 c85:  - x267 - x270 - x284 + x287 - x289 + x293  = 0
 c86:  - x327 - x330 - x344 + x347 - x349 + x353  = 0
 c87:  - x387 - x390 - x404 + x407 - x409 + x413  = 0
 c88:  - x447 - x450 - x464 + x467 - x469 + x473  = 0
 c89:  - x507 - x510 - x524 + x527 - x529 + x533  = 0
 c90:  - x567 - x570 - x584 + x587 - x589 + x593  = 0
 c91:  - x1 + x9 + x27 - x28 + x38 - x39 + x41 - x51  = 0
 c92:  - x61 + x69 + x87 - x88 + x98 - x99 + x101 - x111  = 0
 c93:  - x121 + x129 + x147 - x148 + x158 - x159 + x161 - x171  = 0
 c94:  - x181 + x189 + x207 - x208 + x218 - x219 + x221 - x231  = 0
 c95:  - x241 + x249 + x267 - x268 + x278 - x279 + x281 - x291  = -1
 c96:  - x301 + x309 + x327 - x328 + x338 - x339 + x341 - x351  = 0
 c97:  - x361 + x369 + x387 - x388 + x398 - x399 + x401 - x411  = 0
 c98:  - x421 + x429 + x447 - x448 + x458 - x459 + x461 - x471  = 0
 c99:  - x481 + x489 + x507 - x508 + x518 - x519 + x521 - x531  = 0
 c100: - x541 + x549 + x567 - x568 + x578 - x579 + x581 - x591  = -1
 c101: - x4 - x25 - x32 - x36 - x43 + x50 - x60  = 0
 c102: - x64 - x85 - x92 - x96 - x103 + x110 - x120  = 0
 c103: - x124 - x145 - x152 - x156 - x163 + x170 - x180  = 0
 c104: - x184 - x205 - x212 - x216 - x223 + x230 - x240  = 0
 c105: - x244 - x265 - x272 - x276 - x283 + x290 - x300  = 0
 c106: - x304 - x325 - x332 - x336 - x343 + x350 - x360  = 0
 c107: - x364 - x385 - x392 - x396 - x403 + x410 - x420  = 0
 c108: - x424 - x445 - x452 - x456 - x463 + x470 - x480  = 0
 c109: - x484 - x505 - x512 - x516 - x523 + x530 - x540  = 1
 c110: - x544 - x565 - x572 - x576 - x583 + x590 - x600  = 0
 c111: x23 + x26 - x31 + x37 - x42 - x59  = 0
 c112: x83 + x86 - x91 + x97 - x102 - x119  = 0
 c113: x143 + x146 - x151 + x157 - x162 - x179  = 1
 c114: x203 + x206 - x211 + x217 - x222 - x239  = 0
 c115: x263 + x266 - x271 + x277 - x282 - x299  = 0
 c116: x323 + x326 - x331 + x337 - x342 - x359  = 0
 c117: x383 + x386 - x391 + x397 - x402 - x419  = 0
 c118: x443 + x446 - x451 + x457 - x462 - x479  = 0
 c119: x503 + x506 - x511 + x517 - x522 - x539  = 0
 c120: x563 + x566 - x571 + x577 - x582 - x599  = 0
 c121: x3 - x18 + x30 + x33 + x54 - x58  = 0
 c122: x63 - x78 + x90 + x93 + x114 - x118  = 0
 c123: x123 - x138 + x150 + x153 + x174 - x178  = 0
 c124: x183 - x198 + x210 + x213 + x234 - x238  = 1
 c125: x243 - x258 + x270 + x273 + x294 - x298  = 1
 c126: x303 - x318 + x330 + x333 + x354 - x358  = 1
 c127: x363 - x378 + x390 + x393 + x414 - x418  = 0
 c128: x423 - x438 + x450 + x453 + x474 - x478  = 0
 c129: x483 - x498 + x510 + x513 + x534 - x538  = 0
 c130: x543 - x558 + x570 + x573 + x594 - x598  = 0
 c131: x1 - x3 - x7 + x20 + x21 + x35 + x42 + x46 - x56  = 0
 c132: x61 - x63 - x67 + x80 + x81 + x95 + x102 + x106 - x116  = 0
 c133: x121 - x123 - x127 + x140 + x141 + x155 + x162 + x166 - x176  = 0
 c134: x181 - x183 - x187 + x200 + x201 + x215 + x222 + x226 - x236  = 0
 c135: x241 - x243 - x247 + x260 + x261 + x275 + x282 + x286 - x296  = 0
 c136: x301 - x303 - x307 + x320 + x321 + x335 + x342 + x346 - x356  = 0
 c137: x361 - x363 - x367 + x380 + x381 + x395 + x402 + x406 - x416  = 0
 c138: x421 - x423 - x427 + x440 + x441 + x455 + x462 + x466 - x476  = 1
 c139: x481 - x483 - x487 + x500 + x501 + x515 + x522 + x526 - x536  = 0
 c140: x541 - x543 - x547 + x560 + x561 + x575 + x582 + x586 - x596  = 0
 c141: - x13 + x19 - x23 - x41 + x43 + x49 + x52 + x55  = 1
 c142: - x73 + x79 - x83 - x101 + x103 + x109 + x112 + x115  = 1
 c143: - x133 + x139 - x143 - x161 + x163 + x169 + x172 + x175  = 0
 c144: - x193 + x199 - x203 - x221 + x223 + x229 + x232 + x235  = -1
 c145: - x253 + x259 - x263 - x281 + x283 + x289 + x292 + x295  = 0
 c146: - x313 + x319 - x323 - x341 + x343 + x349 + x352 + x355  = 0
 c147: - x373 + x379 - x383 - x401 + x403 + x409 + x412 + x415  = 0
 c148: - x433 + x439 - x443 - x461 + x463 + x469 + x472 + x475  = 0
 c149: - x493 + x499 - x503 - x521 + x523 + x529 + x532 + x535  = 0
 c150: - x553 + x559 - x563 - x581 + x583 + x589 + x592 + x595  = 0
 c151: 4 x1 + 4 x61 + 4 x121 + 4 x181 + 4 x241 + 4 x301 + 4 x361 + 4 x421
       + 4 x481 + 4 x541 - 5 x601 <= 0
 c152: 4 x2 + 4 x62 + 4 x122 + 4 x182 + 4 x242 + 4 x302 + 4 x362 + 4 x422
       + 4 x482 + 4 x542 - 5 x602 <= 0
 c153: 4 x3 + 4 x63 + 4 x123 + 4 x183 + 4 x243 + 4 x303 + 4 x363 + 4 x423
       + 4 x483 + 4 x543 - 5 x603 <= 0
 c154: 4 x4 + 4 x64 + 4 x124 + 4 x184 + 4 x244 + 4 x304 + 4 x364 + 4 x424
       + 4 x484 + 4 x544 - 5 x604 <= 0
 c155: 4 x5 + 4 x65 + 4 x125 + 4 x185 + 4 x245 + 4 x305 + 4 x365 + 4 x425
       + 4 x485 + 4 x545 - 5 x605 <= 0
 c156: 4 x6 + 4 x66 + 4 x126 + 4 x186 + 4 x246 + 4 x306 + 4 x366 + 4 x426
       + 4 x486 + 4 x546 - 5 x606 <= 0
 c157: 4 x7 + 4 x67 + 4 x127 + 4 x187 + 4 x247 + 4 x307 + 4 x367 + 4 x427
       + 4 x487 + 4 x547 - 5 x607 <= 0
 c158: 4 x8 + 4 x68 + 4 x128 + 4 x188 + 4 x248 + 4 x308 + 4 x368 + 4 x428
       + 4 x488 + 4 x548 - 5 x608 <= 0
 c159: 4 x9 + 4 x69 + 4 x129 + 4 x189 + 4 x249 + 4 x309 + 4 x369 + 4 x429
       + 4 x489 + 4 x549 - 5 x609 <= 0
 c160: 4 x10 + 4 x70 + 4 x130 + 4 x190 + 4 x250 + 4 x310 + 4 x370 + 4 x430
       + 4 x490 + 4 x550 - 5 x610 <= 0
 c161: 4 x11 + 4 x71 + 4 x131 + 4 x191 + 4 x251 + 4 x311 + 4 x371 + 4 x431
       + 4 x491 + 4 x551 - 5 x611 <= 0
 c162: 4 x12 + 4 x72 + 4 x132 + 4 x192 + 4 x252 + 4 x312 + 4 x372 + 4 x432
       + 4 x492 + 4 x552 - 5 x612 <= 0
 c163: 4 x13 + 4 x73 + 4 x133 + 4 x193 + 4 x253 + 4 x313 + 4 x373 + 4 x433
       + 4 x493 + 4 x553 - 5 x613 <= 0
 c164: 4 x14 + 4 x74 + 4 x134 + 4 x194 + 4 x254 + 4 x314 + 4 x374 + 4 x434
       + 4 x494 + 4 x554 - 5 x614 <= 0
 c165: 4 x15 + 4 x75 + 4 x135 + 4 x195 + 4 x255 + 4 x315 + 4 x375 + 4 x435
       + 4 x495 + 4 x555 - 5 x615 <= 0
 c166: 4 x16 + 4 x76 + 4 x136 + 4 x196 + 4 x256 + 4 x316 + 4 x376 + 4 x436
       + 4 x496 + 4 x556 - 5 x616 <= 0
 c167: 4 x17 + 4 x77 + 4 x137 + 4 x197 + 4 x257 + 4 x317 + 4 x377 + 4 x437
       + 4 x497 + 4 x557 - 5 x617 <= 0
 c168: 4 x18 + 4 x78 + 4 x138 + 4 x198 + 4 x258 + 4 x318 + 4 x378 + 4 x438
       + 4 x498 + 4 x558 - 5 x618 <= 0
 c169: 4 x19 + 4 x79 + 4 x139 + 4 x199 + 4 x259 + 4 x319 + 4 x379 + 4 x439
       + 4 x499 + 4 x559 - 5 x619 <= 0
 c170: 4 x20 + 4 x80 + 4 x140 + 4 x200 + 4 x260 + 4 x320 + 4 x380 + 4 x440
       + 4 x500 + 4 x560 - 5 x620 <= 0
 c171: 4 x21 + 4 x81 + 4 x141 + 4 x201 + 4 x261 + 4 x321 + 4 x381 + 4 x441
       + 4 x501 + 4 x561 - 5 x621 <= 0
 c172: 4 x22 + 4 x82 + 4 x142 + 4 x202 + 4 x262 + 4 x322 + 4 x382 + 4 x442
       + 4 x502 + 4 x562 - 5 x622 <= 0
 c173: 4 x23 + 4 x83 + 4 x143 + 4 x203 + 4 x263 + 4 x323 + 4 x383 + 4 x443
       + 4 x503 + 4 x563 - 5 x623 <= 0
 c174: 4 x24 + 4 x84 + 4 x144 + 4 x204 + 4 x264 + 4 x324 + 4 x384 + 4 x444
       + 4 x504 + 4 x564 - 5 x624 <= 0
 c175: 4 x25 + 4 x85 + 4 x145 + 4 x205 + 4 x265 + 4 x325 + 4 x385 + 4 x445
       + 4 x505 + 4 x565 - 5 x625 <= 0
 c176: 4 x26 + 4 x86 + 4 x146 + 4 x206 + 4 x266 + 4 x326 + 4 x386 + 4 x446
       + 4 x506 + 4 x566 - 5 x626 <= 0
 c177: 4 x27 + 4 x87 + 4 x147 + 4 x207 + 4 x267 + 4 x327 + 4 x387 + 4 x447
       + 4 x507 + 4 x567 - 5 x627 <= 0
 c178: 4 x28 + 4 x88 + 4 x148 + 4 x208 + 4 x268 + 4 x328 + 4 x388 + 4 x448
       + 4 x508 + 4 x568 - 5 x628 <= 0
 c179: 4 x29 + 4 x89 + 4 x149 + 4 x209 + 4 x269 + 4 x329 + 4 x389 + 4 x449
       + 4 x509 + 4 x569 - 5 x629 <= 0
 c180: 4 x30 + 4 x90 + 4 x150 + 4 x210 + 4 x270 + 4 x330 + 4 x390 + 4 x450
       + 4 x510 + 4 x570 - 5 x630 <= 0
 c181: 4 x31 + 4 x91 + 4 x151 + 4 x211 + 4 x271 + 4 x331 + 4 x391 + 4 x451
       + 4 x511 + 4 x571 - 5 x631 <= 0
 c182: 4 x32 + 4 x92 + 4 x152 + 4 x212 + 4 x272 + 4 x332 + 4 x392 + 4 x452
       + 4 x512 + 4 x572 - 5 x632 <= 0
 c183: 4 x33 + 4 x93 + 4 x153 + 4 x213 + 4 x273 + 4 x333 + 4 x393 + 4 x453
       + 4 x513 + 4 x573 - 5 x633 <= 0
 c184: 4 x34 + 4 x94 + 4 x154 + 4 x214 + 4 x274 + 4 x334 + 4 x394 + 4 x454
       + 4 x514 + 4 x574 - 5 x634 <= 0
 c185: 4 x35 + 4 x95 + 4 x155 + 4 x215 + 4 x275 + 4 x335 + 4 x395 + 4 x455
       + 4 x515 + 4 x575 - 5 x635 <= 0
 c186: 4 x36 + 4 x96 + 4 x156 + 4 x216 + 4 x276 + 4 x336 + 4 x396 + 4 x456
       + 4 x516 + 4 x576 - 5 x636 <= 0
 c187: 4 x37 + 4 x97 + 4 x157 + 4 x217 + 4 x277 + 4 x337 + 4 x397 + 4 x457
       + 4 x517 + 4 x577 - 5 x637 <= 0
 c188: 4 x38 + 4 x98 + 4 x158 + 4 x218 + 4 x278 + 4 x338 + 4 x398 + 4 x458
       + 4 x518 + 4 x578 - 5 x638 <= 0
 c189: 4 x39 + 4 x99 + 4 x159 + 4 x219 + 4 x279 + 4 x339 + 4 x399 + 4 x459
       + 4 x519 + 4 x579 - 5 x639 <= 0
 c190: 4 x40 + 4 x100 + 4 x160 + 4 x220 + 4 x280 + 4 x340 + 4 x400 + 4 x460
       + 4 x520 + 4 x580 - 5 x640 <= 0
 c191: 4 x41 + 4 x101 + 4 x161 + 4 x221 + 4 x281 + 4 x341 + 4 x401 + 4 x461
       + 4 x521 + 4 x581 - 5 x641 <= 0
 c192: 4 x42 + 4 x102 + 4 x162 + 4 x222 + 4 x282 + 4 x342 + 4 x402 + 4 x462
       + 4 x522 + 4 x582 - 5 x642 <= 0
 c193: 4 x43 + 4 x103 + 4 x163 + 4 x223 + 4 x283 + 4 x343 + 4 x403 + 4 x463
       + 4 x523 + 4 x583 - 5 x643 <= 0
 c194: 4 x44 + 4 x104 + 4 x164 + 4 x224 + 4 x284 + 4 x344 + 4 x404 + 4 x464
       + 4 x524 + 4 x584 - 5 x644 <= 0
 c195: 4 x45 + 4 x105 + 4 x165 + 4 x225 + 4 x285 + 4 x345 + 4 x405 + 4 x465
       + 4 x525 + 4 x585 - 5 x645 <= 0
 c196: 4 x46 + 4 x106 + 4 x166 + 4 x226 + 4 x286 + 4 x346 + 4 x406 + 4 x466
       + 4 x526 + 4 x586 - 5 x646 <= 0
 c197: 4 x47 + 4 x107 + 4 x167 + 4 x227 + 4 x287 + 4 x347 + 4 x407 + 4 x467
       + 4 x527 + 4 x587 - 5 x647 <= 0
 c198: 4 x48 + 4 x108 + 4 x168 + 4 x228 + 4 x288 + 4 x348 + 4 x408 + 4 x468
       + 4 x528 + 4 x588 - 5 x648 <= 0
 c199: 4 x49 + 4 x109 + 4 x169 + 4 x229 + 4 x289 + 4 x349 + 4 x409 + 4 x469
       + 4 x529 + 4 x589 - 5 x649 <= 0
 c200: 4 x50 + 4 x110 + 4 x170 + 4 x230 + 4 x290 + 4 x350 + 4 x410 + 4 x470
       + 4 x530 + 4 x590 - 5 x650 <= 0
 c201: 4 x51 + 4 x111 + 4 x171 + 4 x231 + 4 x291 + 4 x351 + 4 x411 + 4 x471
       + 4 x531 + 4 x591 - 5 x651 <= 0
 c202: 4 x52 + 4 x112 + 4 x172 + 4 x232 + 4 x292 + 4 x352 + 4 x412 + 4 x472
       + 4 x532 + 4 x592 - 5 x652 <= 0
 c203: 4 x53 + 4 x113 + 4 x173 + 4 x233 + 4 x293 + 4 x353 + 4 x413 + 4 x473
       + 4 x533 + 4 x593 - 5 x653 <= 0
 c204: 4 x54 + 4 x114 + 4 x174 + 4 x234 + 4 x294 + 4 x354 + 4 x414 + 4 x474
       + 4 x534 + 4 x594 - 5 x654 <= 0
 c205: 4 x55 + 4 x115 + 4 x175 + 4 x235 + 4 x295 + 4 x355 + 4 x415 + 4 x475
       + 4 x535 + 4 x595 - 5 x655 <= 0
 c206: 4 x56 + 4 x116 + 4 x176 + 4 x236 + 4 x296 + 4 x356 + 4 x416 + 4 x476
       + 4 x536 + 4 x596 - 5 x656 <= 0
 c207: 4 x57 + 4 x117 + 4 x177 + 4 x237 + 4 x297 + 4 x357 + 4 x417 + 4 x477
       + 4 x537 + 4 x597 - 5 x657 <= 0
 c208: 4 x58 + 4 x118 + 4 x178 + 4 x238 + 4 x298 + 4 x358 + 4 x418 + 4 x478
       + 4 x538 + 4 x598 - 5 x658 <= 0
 c209: 4 x59 + 4 x119 + 4 x179 + 4 x239 + 4 x299 + 4 x359 + 4 x419 + 4 x479
       + 4 x539 + 4 x599 - 5 x659 <= 0
 c210: 4 x60 + 4 x120 + 4 x180 + 4 x240 + 4 x300 + 4 x360 + 4 x420 + 4 x480
       + 4 x540 + 4 x600 - 5 x660 <= 0
Bounds
 0 <= x1 <= 1
 0 <= x2 <= 1
 0 <= x3 <= 1
 0 <= x4 <= 1
 0 <= x5 <= 1
 0 <= x6 <= 1
 0 <= x7 <= 1
 0 <= x8 <= 1
 0 <= x9 <= 1
 0 <= x10 <= 1
 0 <= x11 <= 1
 0 <= x12 <= 1
 0 <= x13 <= 1
 0 <= x14 <= 1
 0 <= x15 <= 1
 0 <= x16 <= 1
 0 <= x17 <= 1
 0 <= x18 <= 1
 0 <= x19 <= 1
 0 <= x20 <= 1
 0 <= x21 <= 1
 0 <= x22 <= 1
 0 <= x23 <= 1
 0 <= x24 <= 1
 0 <= x25 <= 1
 0 <= x26 <= 1
 0 <= x27 <= 1
 0 <= x28 <= 1
 0 <= x29 <= 1
 0 <= x30 <= 1
 0 <= x31 <= 1
 0 <= x32 <= 1
 0 <= x33 <= 1
 0 <= x34 <= 1
 0 <= x35 <= 1
 0 <= x36 <= 1
 0 <= x37 <= 1
 0 <= x38 <= 1
 0 <= x39 <= 1
 0 <= x40 <= 1
 0 <= x41 <= 1
 0 <= x42 <= 1
 0 <= x43 <= 1
 0 <= x44 <= 1
 0 <= x45 <= 1
 0 <= x46 <= 1
 0 <= x47 <= 1
 0 <= x48 <= 1
 0 <= x49 <= 1
 0 <= x50 <= 1
 0 <= x51 <= 1
 0 <= x52 <= 1
 0 <= x53 <= 1
 0 <= x54 <= 1
 0 <= x55 <= 1
 0 <= x56 <= 1
 0 <= x57 <= 1
 0 <= x58 <= 1
 0 <= x59 <= 1
 0 <= x60 <= 1
 0 <= x61 <= 1
 0 <= x62 <= 1
 0 <= x63 <= 1
 0 <= x64 <= 1
 0 <= x65 <= 1
 0 <= x66 <= 1
 0 <= x67 <= 1
 0 <= x68 <= 1
 0 <= x69 <= 1
 0 <= x70 <= 1
 0 <= x71 <= 1
 0 <= x72 <= 1
 0 <= x73 <= 1
 0 <= x74 <= 1
 0 <= x75 <= 1
 0 <= x76 <= 1
 0 <= x77 <= 1
 0 <= x78 <= 1
 0 <= x79 <= 1
 0 <= x80 <= 1
 0 <= x81 <= 1
 0 <= x82 <= 1
 0 <= x83 <= 1
 0 <= x84 <= 1
 0 <= x85 <= 1
 0 <= x86 <= 1
 0 <= x87 <= 1
 0 <= x88 <= 1
 0 <= x89 <= 1
 0 <= x90 <= 1
 0 <= x91 <= 1
 0 <= x92 <= 1
 0 <= x93 <= 1
 0 <= x94 <= 1
 0 <= x95 <= 1
 0 <= x96 <= 1
 0 <= x97 <= 1
 0 <= x98 <= 1
 0 <= x99 <= 1
 0 <= x100 <= 1
 0 <= x101 <= 1
 0 <= x102 <= 1
 0 <= x103 <= 1
 0 <= x104 <= 1
 0 <= x105 <= 1
 0 <= x106 <= 1
 0 <= x107 <= 1
 0 <= x108 <= 1
 0 <= x109 <= 1
 0 <= x110 <= 1
 0 <= x111 <= 1
 0 <= x112 <= 1
 0 <= x113 <= 1
 0 <= x114 <= 1
 0 <= x115 <= 1
 0 <= x116 <= 1
 0 <= x117 <= 1
 0 <= x118 <= 1
 0 <= x119 <= 1
 0 <= x120 <= 1
 0 <= x121 <= 1
 0 <= x122 <= 1
 0 <= x123 <= 1
 0 <= x124 <= 1
 0 <= x125 <= 1
 0 <= x126 <= 1
 0 <= x127 <= 1
 0 <= x128 <= 1
 0 <= x129 <= 1
 0 <= x130 <= 1
 0 <= x131 <= 1
 0 <= x132 <= 1
 0 <= x133 <= 1
 0 <= x134 <= 1
 0 <= x135 <= 1
 0 <= x136 <= 1
 0 <= x137 <= 1
 0 <= x138 <= 1
 0 <= x139 <= 1
 0 <= x140 <= 1
 0 <= x141 <= 1
 0 <= x142 <= 1
 0 <= x143 <= 1
 0 <= x144 <= 1
 0 <= x145 <= 1
 0 <= x146 <= 1
 0 <= x147 <= 1
 0 <= x148 <= 1
 0 <= x149 <= 1
 0 <= x150 <= 1
 0 <= x151 <= 1
 0 <= x152 <= 1
 0 <= x153 <= 1
 0 <= x154 <= 1
 0 <= x155 <= 1
 0 <= x156 <= 1
 0 <= x157 <= 1
 0 <= x158 <= 1
 0 <= x159 <= 1
 0 <= x160 <= 1
 0 <= x161 <= 1
 0 <= x162 <= 1
 0 <= x163 <= 1
 0 <= x164 <= 1
 0 <= x165 <= 1
 0 <= x166 <= 1
 0 <= x167 <= 1
 0 <= x168 <= 1
 0 <= x169 <= 1
 0 <= x170 <= 1
 0 <= x171 <= 1
 0 <= x172 <= 1
 0 <= x173 <= 1
 0 <= x174 <= 1
 0 <= x175 <= 1
 0 <= x176 <= 1
 0 <= x177 <= 1
 0 <= x178 <= 1
 0 <= x179 <= 1
 0 <= x180 <= 1
 0 <= x181 <= 1
 0 <= x182 <= 1
 0 <= x183 <= 1
 0 <= x184 <= 1
 0 <= x185 <= 1
 0 <= x186 <= 1
 0 <= x187 <= 1
 0 <= x188 <= 1
 0 <= x189 <= 1
 0 <= x190 <= 1
 0 <= x191 <= 1
 0 <= x192 <= 1
 0 <= x193 <= 1
 0 <= x194 <= 1
 0 <= x195 <= 1
 0 <= x196 <= 1
 0 <= x197 <= 1
 0 <= x198 <= 1
 0 <= x199 <= 1
 0 <= x200 <= 1
 0 <= x201 <= 1
 0 <= x202 <= 1
 0 <= x203 <= 1
 0 <= x204 <= 1
 0 <= x205 <= 1
 0 <= x206 <= 1
 0 <= x207 <= 1
 0 <= x208 <= 1
 0 <= x209 <= 1
 0 <= x210 <= 1
 0 <= x211 <= 1
 0 <= x212 <= 1
 0 <= x213 <= 1
 0 <= x214 <= 1
 0 <= x215 <= 1
 0 <= x216 <= 1
 0 <= x217 <= 1
 0 <= x218 <= 1
 0 <= x219 <= 1
 0 <= x220 <= 1
 0 <= x221 <= 1
 0 <= x222 <= 1
 0 <= x223 <= 1
 0 <= x224 <= 1
 0 <= x225 <= 1
 0 <= x226 <= 1
 0 <= x227 <= 1
 0 <= x228 <= 1
 0 <= x229 <= 1
 0 <= x230 <= 1
 0 <= x231 <= 1
 0 <= x232 <= 1
 0 <= x233 <= 1
 0 <= x234 <= 1
 0 <= x235 <= 1
 0 <= x236 <= 1
 0 <= x237 <= 1
 0 <= x238 <= 1
 0 <= x239 <= 1
 0 <= x240 <= 1
 0 <= x241 <= 1
 0 <= x242 <= 1
 0 <= x243 <= 1
 0 <= x244 <= 1
 0 <= x245 <= 1
 0 <= x246 <= 1
 0 <= x247 <= 1
 0 <= x248 <= 1
 0 <= x249 <= 1
 0 <= x250 <= 1
 0 <= x251 <= 1
 0 <= x252 <= 1
 0 <= x253 <= 1
 0 <= x254 <= 1
 0 <= x255 <= 1
 0 <= x256 <= 1
 0 <= x257 <= 1
 0 <= x258 <= 1
 0 <= x259 <= 1
 0 <= x260 <= 1
 0 <= x261 <= 1
 0 <= x262 <= 1
 0 <= x263 <= 1
 0 <= x264 <= 1
 0 <= x265 <= 1
 0 <= x266 <= 1
 0 <= x267 <= 1
 0 <= x268 <= 1
 0 <= x269 <= 1
 0 <= x270 <= 1
 0 <= x271 <= 1
 0 <= x272 <= 1
 0 <= x273 <= 1
 0 <= x274 <= 1
 0 <= x275 <= 1
 0 <= x276 <= 1
 0 <= x277 <= 1
 0 <= x278 <= 1
 0 <= x279 <= 1
 0 <= x280 <= 1
 0 <= x281 <= 1
 0 <= x282 <= 1
 0 <= x283 <= 1
 0 <= x284 <= 1
 0 <= x285 <= 1
 0 <= x286 <= 1
 0 <= x287 <= 1
 0 <= x288 <= 1
 0 <= x289 <= 1
 0 <= x290 <= 1
 0 <= x291 <= 1
 0 <= x292 <= 1
 0 <= x293 <= 1
 0 <= x294 <= 1
 0 <= x295 <= 1
 0 <= x296 <= 1
 0 <= x297 <= 1
 0 <= x298 <= 1
 0 <= x299 <= 1
 0 <= x300 <= 1
 0 <= x301 <= 1
 0 <= x302 <= 1
 0 <= x303 <= 1
 0 <= x304 <= 1
 0 <= x305 <= 1
 0 <= x306 <= 1
 0 <= x307 <= 1
 0 <= x308 <= 1
 0 <= x309 <= 1
 0 <= x310 <= 1
 0 <= x311 <= 1
 0 <= x312 <= 1
 0 <= x313 <= 1
 0 <= x314 <= 1
 0 <= x315 <= 1
 0 <= x316 <= 1
 0 <= x317 <= 1
 0 <= x318 <= 1
 0 <= x319 <= 1
 0 <= x320 <= 1
 0 <= x321 <= 1
 0 <= x322 <= 1
 0 <= x323 <= 1
 0 <= x324 <= 1
 0 <= x325 <= 1
 0 <= x326 <= 1
 0 <= x327 <= 1
 0 <= x328 <= 1
 0 <= x329 <= 1
 0 <= x330 <= 1
 0 <= x331 <= 1
 0 <= x332 <= 1
 0 <= x333 <= 1
 0 <= x334 <= 1
 0 <= x335 <= 1
 0 <= x336 <= 1
 0 <= x337 <= 1
 0 <= x338 <= 1
 0 <= x339 <= 1
 0 <= x340 <= 1
 0 <= x341 <= 1
 0 <= x342 <= 1
 0 <= x343 <= 1
 0 <= x344 <= 1
 0 <= x345 <= 1
 0 <= x346 <= 1
 0 <= x347 <= 1
 0 <= x348 <= 1
 0 <= x349 <= 1
 0 <= x350 <= 1
 0 <= x351 <= 1
 0 <= x352 <= 1
 0 <= x353 <= 1
 0 <= x354 <= 1
 0 <= x355 <= 1
 0 <= x356 <= 1
 0 <= x357 <= 1
 0 <= x358 <= 1
 0 <= x359 <= 1
 0 <= x360 <= 1
 0 <= x361 <= 1
 0 <= x362 <= 1
 0 <= x363 <= 1
 0 <= x364 <= 1
 0 <= x365 <= 1
 0 <= x366 <= 1
 0 <= x367 <= 1
 0 <= x368 <= 1
 0 <= x369 <= 1
 0 <= x370 <= 1
 0 <= x371 <= 1
 0 <= x372 <= 1
 0 <= x373 <= 1
 0 <= x374 <= 1
 0 <= x375 <= 1
 0 <= x376 <= 1
 0 <= x377 <= 1
 0 <= x378 <= 1
 0 <= x379 <= 1
 0 <= x380 <= 1
 0 <= x381 <= 1
 0 <= x382 <= 1
 0 <= x383 <= 1
 0 <= x384 <= 1
 0 <= x385 <= 1
 0 <= x386 <= 1
 0 <= x387 <= 1
 0 <= x388 <= 1
 0 <= x389 <= 1
 0 <= x390 <= 1
 0 <= x391 <= 1
 0 <= x392 <= 1
 0 <= x393 <= 1
 0 <= x394 <= 1
 0 <= x395 <= 1
 0 <= x396 <= 1
 0 <= x397 <= 1
 0 <= x398 <= 1
 0 <= x399 <= 1
 0 <= x400 <= 1
 0 <= x401 <= 1
 0 <= x402 <= 1
 0 <= x403 <= 1
 0 <= x404 <= 1
 0 <= x405 <= 1
 0 <= x406 <= 1
 0 <= x407 <= 1
 0 <= x408 <= 1
 0 <= x409 <= 1
 0 <= x410 <= 1
 0 <= x411 <= 1
 0 <= x412 <= 1
 0 <= x413 <= 1
 0 <= x414 <= 1
 0 <= x415 <= 1
 0 <= x416 <= 1
 0 <= x417 <= 1
 0 <= x418 <= 1
 0 <= x419 <= 1
 0 <= x420 <= 1
 0 <= x421 <= 1
 0 <= x422 <= 1
 0 <= x423 <= 1
 0 <= x424 <= 1
 0 <= x425 <= 1
 0 <= x426 <= 1
 0 <= x427 <= 1
 0 <= x428 <= 1
 0 <= x429 <= 1
 0 <= x430 <= 1
 0 <= x431 <= 1
 0 <= x432 <= 1
 0 <= x433 <= 1
 0 <= x434 <= 1
 0 <= x435 <= 1
 0 <= x436 <= 1
 0 <= x437 <= 1
 0 <= x438 <= 1
 0 <= x439 <= 1
 0 <= x440 <= 1
 0 <= x441 <= 1
 0 <= x442 <= 1
 0 <= x443 <= 1
 0 <= x444 <= 1
 0 <= x445 <= 1
 0 <= x446 <= 1
 0 <= x447 <= 1
 0 <= x448 <= 1
 0 <= x449 <= 1
 0 <= x450 <= 1
 0 <= x451 <= 1
 0 <= x452 <= 1
 0 <= x453 <= 1
 0 <= x454 <= 1
 0 <= x455 <= 1
 0 <= x456 <= 1
 0 <= x457 <= 1
 0 <= x458 <= 1
 0 <= x459 <= 1
 0 <= x460 <= 1
 0 <= x461 <= 1
 0 <= x462 <= 1
 0 <= x463 <= 1
 0 <= x464 <= 1
 0 <= x465 <= 1
 0 <= x466 <= 1
 0 <= x467 <= 1
 0 <= x468 <= 1
 0 <= x469 <= 1
 0 <= x470 <= 1
 0 <= x471 <= 1
 0 <= x472 <= 1
 0 <= x473 <= 1
 0 <= x474 <= 1
 0 <= x475 <= 1
 0 <= x476 <= 1
 0 <= x477 <= 1
 0 <= x478 <= 1
 0 <= x479 <= 1
 0 <= x480 <= 1
 0 <= x481 <= 1
 0 <= x482 <= 1
 0 <= x483 <= 1
 0 <= x484 <= 1
 0 <= x485 <= 1
 0 <= x486 <= 1
 0 <= x487 <= 1
 0 <= x488 <= 1
 0 <= x489 <= 1
 0 <= x490 <= 1
 0 <= x491 <= 1
 0 <= x492 <= 1
 0 <= x493 <= 1
 0 <= x494 <= 1
 0 <= x495 <= 1
 0 <= x496 <= 1
 0 <= x497 <= 1
 0 <= x498 <= 1
 0 <= x499 <= 1
 0 <= x500 <= 1
 0 <= x501 <= 1
 0 <= x502 <= 1
 0 <= x503 <= 1
 0 <= x504 <= 1
 0 <= x505 <= 1
 0 <= x506 <= 1
 0 <= x507 <= 1
 0 <= x508 <= 1
 0 <= x509 <= 1
 0 <= x510 <= 1
 0 <= x511 <= 1
 0 <= x512 <= 1
 0 <= x513 <= 1
 0 <= x514 <= 1
 0 <= x515 <= 1
 0 <= x516 <= 1
 0 <= x517 <= 1
 0 <= x518 <= 1
 0 <= x519 <= 1
 0 <= x520 <= 1
 0 <= x521 <= 1
 0 <= x522 <= 1
 0 <= x523 <= 1
 0 <= x524 <= 1
 0 <= x525 <= 1
 0 <= x526 <= 1
 0 <= x527 <= 1
 0 <= x528 <= 1
 0 <= x529 <= 1
 0 <= x530 <= 1
 0 <= x531 <= 1
 0 <= x532 <= 1
 0 <= x533 <= 1
 0 <= x534 <= 1
 0 <= x535 <= 1
 0 <= x536 <= 1
 0 <= x537 <= 1
 0 <= x538 <= 1
 0 <= x539 <= 1
 0 <= x540 <= 1
 0 <= x541 <= 1
 0 <= x542 <= 1
 0 <= x543 <= 1
 0 <= x544 <= 1
 0 <= x545 <= 1
 0 <= x546 <= 1
 0 <= x547 <= 1
 0 <= x548 <= 1
 0 <= x549 <= 1
 0 <= x550 <= 1
 0 <= x551 <= 1
 0 <= x552 <= 1
 0 <= x553 <= 1
 0 <= x554 <= 1
 0 <= x555 <= 1
 0 <= x556 <= 1
 0 <= x557 <= 1
 0 <= x558 <= 1
 0 <= x559 <= 1
 0 <= x560 <= 1
 0 <= x561 <= 1
 0 <= x562 <= 1
 0 <= x563 <= 1
 0 <= x564 <= 1
 0 <= x565 <= 1
 0 <= x566 <= 1
 0 <= x567 <= 1
 0 <= x568 <= 1
 0 <= x569 <= 1
 0 <= x570 <= 1
 0 <= x571 <= 1
 0 <= x572 <= 1
 0 <= x573 <= 1
 0 <= x574 <= 1
 0 <= x575 <= 1
 0 <= x576 <= 1
 0 <= x577 <= 1
 0 <= x578 <= 1
 0 <= x579 <= 1
 0 <= x580 <= 1
 0 <= x581 <= 1
 0 <= x582 <= 1
 0 <= x583 <= 1
 0 <= x584 <= 1
 0 <= x585 <= 1
 0 <= x586 <= 1
 0 <= x587 <= 1
 0 <= x588 <= 1
 0 <= x589 <= 1
 0 <= x590 <= 1
 0 <= x591 <= 1
 0 <= x592 <= 1
 0 <= x593 <= 1
 0 <= x594 <= 1
 0 <= x595 <= 1
 0 <= x596 <= 1
 0 <= x597 <= 1
 0 <= x598 <= 1
 0 <= x599 <= 1
 0 <= x600 <= 1
 0 <= x601 <= 1
 0 <= x602 <= 1
 0 <= x603 <= 1
 0 <= x604 <= 1
 0 <= x605 <= 1
 0 <= x606 <= 1
 0 <= x607 <= 1
 0 <= x608 <= 1
 0 <= x609 <= 1
 0 <= x610 <= 1
 0 <= x611 <= 1
 0 <= x612 <= 1
 0 <= x613 <= 1
 0 <= x614 <= 1
 0 <= x615 <= 1
 0 <= x616 <= 1
 0 <= x617 <= 1
 0 <= x618 <= 1
 0 <= x619 <= 1
 0 <= x620 <= 1
 0 <= x621 <= 1
 0 <= x622 <= 1
 0 <= x623 <= 1
 0 <= x624 <= 1
 0 <= x625 <= 1
 0 <= x626 <= 1
 0 <= x627 <= 1
 0 <= x628 <= 1
 0 <= x629 <= 1
 0 <= x630 <= 1
 0 <= x631 <= 1
 0 <= x632 <= 1
 0 <= x633 <= 1
 0 <= x634 <= 1
 0 <= x635 <= 1
 0 <= x636 <= 1
 0 <= x637 <= 1
 0 <= x638 <= 1
 0 <= x639 <= 1
 0 <= x640 <= 1
 0 <= x641 <= 1
 0 <= x642 <= 1
 0 <= x643 <= 1
 0 <= x644 <= 1
 0 <= x645 <= 1
 0 <= x646 <= 1
 0 <= x647 <= 1
 0 <= x648 <= 1
 0 <= x649 <= 1
 0 <= x650 <= 1
 0 <= x651 <= 1
 0 <= x652 <= 1
 0 <= x653 <= 1
 0 <= x654 <= 1
 0 <= x655 <= 1
 0 <= x656 <= 1
 0 <= x657 <= 1
 0 <= x658 <= 1
 0 <= x659 <= 1
 0 <= x660 <= 1
Binaries
 x601  x602  x603  x604  x605  x606  x607  x608  x609  x610  x611  x612  x613 
 x614  x615  x616  x617  x618  x619  x620  x621  x622  x623  x624  x625  x626 
 x627  x628  x629  x630  x631  x632  x633  x634  x635  x636  x637  x638  x639 
 x640  x641  x642  x643  x644  x645  x646  x647  x648  x649  x650  x651  x652 
 x653  x654  x655  x656  x657  x658  x659  x660 
End
